Pt  S 
 1.0000000000000000
    11.1100617460030353    0.0000000000000000    0.0000000000000000
     0.0000000000000000   11.1100617460030353    0.0000000000000000
     0.0000000000000000    0.0000000000000000   24.4280000000000008
 Pt  S  
  64   2
Cartesian
  1.3887577182503794  1.3887577182503794  8.0000000000000000
  4.1662731547511385  1.3887577182503794  8.0000000000000000
  6.9437885912518968  1.3887577182503794  8.0000000000000000
  9.7213040277526552  1.3887577182503794  8.0000000000000000
  1.3887577182503794  4.1662731547511385  8.0000000000000000
  4.1662731547511385  4.1662731547511385  8.0000000000000000
  6.9437885912518968  4.1662731547511385  8.0000000000000000
  9.7213040277526552  4.1662731547511385  8.0000000000000000
  1.3887577182503794  6.9437885912518968  8.0000000000000000
  4.1662731547511385  6.9437885912518968  8.0000000000000000
  6.9437885912518968  6.9437885912518968  8.0000000000000000
  9.7213040277526552  6.9437885912518968  8.0000000000000000
  1.3887577182503794  9.7213040277526552  8.0000000000000000
  4.1662731547511385  9.7213040277526552  8.0000000000000000
  6.9437885912518968  9.7213040277526552  8.0000000000000000
  9.7213040277526552  9.7213040277526552  8.0000000000000000
  0.0000000000000000  0.0000000000000000  9.9640000000000004
  2.7775154365007588  0.0000000000000000  9.9640000000000004
  5.5550308730015177  0.0000000000000000  9.9640000000000004
  8.3325463095022769  0.0000000000000000  9.9640000000000004
  0.0000000000000000  2.7775154365007588  9.9640000000000004
  2.7775154365007588  2.7775154365007588  9.9640000000000004
  5.5550308730015177  2.7775154365007588  9.9640000000000004
  8.3325463095022769  2.7775154365007588  9.9640000000000004
  0.0000000000000000  5.5550308730015177  9.9640000000000004
  2.7775154365007588  5.5550308730015177  9.9640000000000004
  5.5550308730015177  5.5550308730015177  9.9640000000000004
  8.3325463095022769  5.5550308730015177  9.9640000000000004
  0.0000000000000000  8.3325463095022769  9.9640000000000004
  2.7775154365007588  8.3325463095022769  9.9640000000000004
  5.5550308730015177  8.3325463095022769  9.9640000000000004
  8.3325463095022769  8.3325463095022769  9.9640000000000004
  1.3887577182503794  1.3887577182503794 11.9280000000000008
  4.1662731547511385  1.3887577182503794 11.9280000000000008
  6.9437885912518968  1.3887577182503794 11.9280000000000008
  9.7213040277526552  1.3887577182503794 11.9280000000000008
  1.3887577182503794  4.1662731547511385 11.9280000000000008
  4.1662731547511385  4.1662731547511385 11.9280000000000008
  6.9437885912518968  4.1662731547511385 11.9280000000000008
  9.7213040277526552  4.1662731547511385 11.9280000000000008
  1.3887577182503794  6.9437885912518968 11.9280000000000008
  4.1662731547511385  6.9437885912518968 11.9280000000000008
  6.9437885912518968  6.9437885912518968 11.9280000000000008
  9.7213040277526552  6.9437885912518968 11.9280000000000008
  1.3887577182503794  9.7213040277526552 11.9280000000000008
  4.1662731547511385  9.7213040277526552 11.9280000000000008
  6.9437885912518968  9.7213040277526552 11.9280000000000008
  9.7213040277526552  9.7213040277526552 11.9280000000000008
  0.0000000000000000  0.0000000000000000 13.8919999999999995
  2.7775154365007588  0.0000000000000000 13.8919999999999995
  5.5550308730015177  0.0000000000000000 13.8919999999999995
  8.3325463095022769  0.0000000000000000 13.8919999999999995
  0.0000000000000000  2.7775154365007588 13.8919999999999995
  2.7775154365007588  2.7775154365007588 13.8919999999999995
  5.5550308730015177  2.7775154365007588 13.8919999999999995
  8.3325463095022769  2.7775154365007588 13.8919999999999995
  0.0000000000000000  5.5550308730015177 13.8919999999999995
  2.7775154365007588  5.5550308730015177 13.8919999999999995
  5.5550308730015177  5.5550308730015177 13.8919999999999995
  8.3325463095022769  5.5550308730015177 13.8919999999999995
  0.0000000000000000  8.3325463095022769 13.8919999999999995
  2.7775154365007588  8.3325463095022769 13.8919999999999995
  5.5550308730015177  8.3325463095022769 13.8919999999999995
  8.3325463095022769  8.3325463095022769 13.8919999999999995
  1.3887577182503794  1.3887577182503794 16.4280000000000008
  4.1662731547511385  1.3887577182503794 16.4280000000000008
