Pt  S 
 1.0000000000000000
     6.8034955721305490    0.0000000000000000    0.0000000000000000
     0.0000000000000000   16.6650926190045503    0.0000000000000000
     0.0000000000000000    0.0000000000000000   26.4381476028550786
  72   1
Cartesian
  4.5356637147537002  1.3887577182503794 16.8197960671812936
  4.5356637147537002  4.1662731547511376 16.8197960671812936
  4.5356637147537002  6.9437885912518960 16.8197960671812936
  4.5356637147537002  9.7213040277526552 16.8197960671812936
  4.5356637147537002 12.4988194642534136 16.8197960671812936
  4.5356637147537002 15.2763349007541720 16.8197960671812936
  2.2678318573768501  0.0000000000000002 16.0179964247102689
  2.2678318573768501  2.7775154365007584 16.0179964247102689
  2.2678318573768501  5.5550308730015168 16.0179964247102689
  2.2678318573768501  8.3325463095022752 16.0179964247102689
  2.2678318573768501 11.1100617460030335 16.0179964247102689
  2.2678318573768501 13.8875771825037919 16.0179964247102689
 -0.0000000000000001  1.3887577182503792 15.2161967822392405
 -0.0000000000000001  4.1662731547511376 15.2161967822392405
 -0.0000000000000001  6.9437885912518960 15.2161967822392405
 -0.0000000000000001  9.7213040277526552 15.2161967822392405
 -0.0000000000000001 12.4988194642534118 15.2161967822392405
 -0.0000000000000001 15.2763349007541720 15.2161967822392405
  4.5356637147537002  0.0000000000000002 14.4143971397682140
  4.5356637147537002  2.7775154365007588 14.4143971397682140
  4.5356637147537002  5.5550308730015168 14.4143971397682140
  4.5356637147537002  8.3325463095022752 14.4143971397682140
  4.5356637147537002 11.1100617460030335 14.4143971397682140
  4.5356637147537002 13.8875771825037919 14.4143971397682140
  2.2678318573768501  1.3887577182503792 13.6125974972971875
  2.2678318573768501  4.1662731547511376 13.6125974972971875
  2.2678318573768501  6.9437885912518960 13.6125974972971875
  2.2678318573768501  9.7213040277526552 13.6125974972971875
  2.2678318573768501 12.4988194642534118 13.6125974972971875
  2.2678318573768501 15.2763349007541720 13.6125974972971875
  0.0000000000000000  0.0000000000000000 12.8107978548261610
  0.0000000000000000  2.7775154365007584 12.8107978548261610
  0.0000000000000000  5.5550308730015168 12.8107978548261610
  0.0000000000000000  8.3325463095022752 12.8107978548261610
  0.0000000000000000 11.1100617460030335 12.8107978548261610
  0.0000000000000000 13.8875771825037919 12.8107978548261610
  4.5356637147537002  1.3887577182503794 12.0089982123551344
  4.5356637147537002  4.1662731547511376 12.0089982123551344
  4.5356637147537002  6.9437885912518960 12.0089982123551344
  4.5356637147537002  9.7213040277526552 12.0089982123551344
  4.5356637147537002 12.4988194642534136 12.0089982123551344
  4.5356637147537002 15.2763349007541720 12.0089982123551344
  2.2678318573768501  0.0000000000000002 11.2071985698841079
  2.2678318573768501  2.7775154365007584 11.2071985698841079
  2.2678318573768501  5.5550308730015168 11.2071985698841079
  2.2678318573768501  8.3325463095022752 11.2071985698841079
  2.2678318573768501 11.1100617460030335 11.2071985698841079
  2.2678318573768501 13.8875771825037919 11.2071985698841079
 -0.0000000000000001  1.3887577182503792 10.4053989274130814
 -0.0000000000000001  4.1662731547511376 10.4053989274130814
 -0.0000000000000001  6.9437885912518960 10.4053989274130814
 -0.0000000000000001  9.7213040277526552 10.4053989274130814
 -0.0000000000000001 12.4988194642534118 10.4053989274130814
 -0.0000000000000001 15.2763349007541720 10.4053989274130814
  4.5356637147537002  0.0000000000000002  9.6035992849420531
  4.5356637147537002  2.7775154365007588  9.6035992849420531
  4.5356637147537002  5.5550308730015168  9.6035992849420531
  4.5356637147537002  8.3325463095022752  9.6035992849420531
  4.5356637147537002 11.1100617460030335  9.6035992849420531
  4.5356637147537002 13.8875771825037919  9.6035992849420531
  2.2678318573768501  1.3887577182503792  8.8017996424710265
  2.2678318573768501  4.1662731547511376  8.8017996424710265
  2.2678318573768501  6.9437885912518960  8.8017996424710265
  2.2678318573768501  9.7213040277526552  8.8017996424710265
  2.2678318573768501 12.4988194642534118  8.8017996424710265
  2.2678318573768501 15.2763349007541720  8.8017996424710265
  0.0000000000000000  0.0000000000000000  8.0000000000000000
  0.0000000000000000  2.7775154365007584  8.0000000000000000
  0.0000000000000000  5.5550308730015168  8.0000000000000000
  0.0000000000000000  8.3325463095022752  8.0000000000000000
  0.0000000000000000 11.1100617460030335  8.0000000000000000
  0.0000000000000000 13.8875771825037919  8.0000000000000000
  3.1130530956280835  2.7775154365007584 18.4381476028550786
