Pt  S 
 1.0000000000000000
    11.1100617460030353    0.0000000000000000    0.0000000000000000
     5.5550308730015177    9.6215957096523219    0.0000000000000000
     0.0000000000000000    0.0000000000000000   24.7678318573768479
 Pt  S  
  64  16
Cartesian
  0.0000000000000000  0.0000000000000000  7.9999999999999991
  2.7775154365007588  0.0000000000000000  7.9999999999999991
  5.5550308730015177  0.0000000000000000  7.9999999999999991
  8.3325463095022769  0.0000000000000000  7.9999999999999991
  1.3887577182503794  2.4053989274130805  7.9999999999999991
  4.1662731547511385  2.4053989274130805  7.9999999999999991
  6.9437885912518968  2.4053989274130805  7.9999999999999991
  9.7213040277526570  2.4053989274130805  7.9999999999999991
  2.7775154365007588  4.8107978548261610  7.9999999999999991
  5.5550308730015177  4.8107978548261610  7.9999999999999991
  8.3325463095022769  4.8107978548261610  7.9999999999999991
 11.1100617460030353  4.8107978548261610  7.9999999999999991
  4.1662731547511385  7.2161967822392414  7.9999999999999991
  6.9437885912518968  7.2161967822392414  7.9999999999999991
  9.7213040277526552  7.2161967822392414  7.9999999999999991
 12.4988194642534154  7.2161967822392414  7.9999999999999991
  1.3887577182503794  0.8017996424710268 10.2678318573768497
  4.1662731547511385  0.8017996424710268 10.2678318573768497
  6.9437885912518977  0.8017996424710268 10.2678318573768497
  9.7213040277526570  0.8017996424710268 10.2678318573768497
  2.7775154365007588  3.2071985698841070 10.2678318573768497
  5.5550308730015177  3.2071985698841070 10.2678318573768497
  8.3325463095022769  3.2071985698841070 10.2678318573768497
 11.1100617460030353  3.2071985698841070 10.2678318573768497
  4.1662731547511385  5.6125974972971884 10.2678318573768497
  6.9437885912518968  5.6125974972971884 10.2678318573768497
  9.7213040277526570  5.6125974972971884 10.2678318573768497
 12.4988194642534154  5.6125974972971884 10.2678318573768497
  5.5550308730015177  8.0179964247102689 10.2678318573768497
  8.3325463095022769  8.0179964247102689 10.2678318573768497
 11.1100617460030353  8.0179964247102689 10.2678318573768497
 13.8875771825037955  8.0179964247102689 10.2678318573768497
 -0.0000000000000001  1.6035992849420535 12.5356637147536993
  2.7775154365007588  1.6035992849420535 12.5356637147536993
  5.5550308730015177  1.6035992849420535 12.5356637147536993
  8.3325463095022769  1.6035992849420535 12.5356637147536993
  1.3887577182503792  4.0089982123551335 12.5356637147536993
  4.1662731547511385  4.0089982123551335 12.5356637147536993
  6.9437885912518977  4.0089982123551335 12.5356637147536993
  9.7213040277526552  4.0089982123551335 12.5356637147536993
  2.7775154365007588  6.4143971397682140 12.5356637147536993
  5.5550308730015177  6.4143971397682140 12.5356637147536993
  8.3325463095022769  6.4143971397682140 12.5356637147536993
 11.1100617460030353  6.4143971397682140 12.5356637147536993
  4.1662731547511385  8.8197960671812954 12.5356637147536993
  6.9437885912518968  8.8197960671812954 12.5356637147536993
  9.7213040277526570  8.8197960671812954 12.5356637147536993
 12.4988194642534154  8.8197960671812954 12.5356637147536993
  0.0000000000000000  0.0000000000000000 14.8034955721305508
  2.7775154365007588  0.0000000000000000 14.8034955721305508
  5.5550308730015177  0.0000000000000000 14.8034955721305508
  8.3325463095022769  0.0000000000000000 14.8034955721305508
  1.3887577182503794  2.4053989274130805 14.8034955721305508
  4.1662731547511385  2.4053989274130805 14.8034955721305508
  6.9437885912518968  2.4053989274130805 14.8034955721305508
  9.7213040277526570  2.4053989274130805 14.8034955721305508
  2.7775154365007588  4.8107978548261610 14.8034955721305508
  5.5550308730015177  4.8107978548261610 14.8034955721305508
  8.3325463095022769  4.8107978548261610 14.8034955721305508
 11.1100617460030353  4.8107978548261610 14.8034955721305508
  4.1662731547511385  7.2161967822392414 14.8034955721305508
  6.9437885912518968  7.2161967822392414 14.8034955721305508
  9.7213040277526552  7.2161967822392414 14.8034955721305508
 12.4988194642534154  7.2161967822392414 14.8034955721305508
  1.3887577182503794  0.8017996424710268 16.7678318573768479
  2.7775154365007588  3.2071985698841070 16.7678318573768479
  4.1662731547511385  5.6125974972971884 16.7678318573768479
  5.5550308730015177  8.0179964247102689 16.7678318573768479
  4.1662731547511385  0.8017996424710268 16.7678318573768479
  5.5550308730015177  3.2071985698841070 16.7678318573768479
  6.9437885912518968  5.6125974972971884 16.7678318573768479
  8.3325463095022769  8.0179964247102689 16.7678318573768479
  6.9437885912518977  0.8017996424710268 16.7678318573768479
  8.3325463095022769  3.2071985698841070 16.7678318573768479
  9.7213040277526570  5.6125974972971884 16.7678318573768479
 11.1100617460030353  8.0179964247102689 16.7678318573768479
  9.7213040277526570  0.8017996424710268 16.7678318573768479
 11.1100617460030353  3.2071985698841070 16.7678318573768479
 12.4988194642534154  5.6125974972971884 16.7678318573768479
 13.8875771825037955  8.0179964247102689 16.7678318573768479
