Pt  S 
 1.0000000000000000
     8.3325463095022769    0.0000000000000000    0.0000000000000000
     4.1662731547511385    7.2161967822392414    0.0000000000000000
     0.0000000000000000    0.0000000000000000   29.3391592868842501
  52   1
Cartesian
  1.3887577182503794  0.8017996424710268  8.0000000000000000
  4.1662731547511385  0.8017996424710268  8.0000000000000000
  6.9437885912518977  0.8017996424710268  8.0000000000000000
  2.7775154365007588  3.2071985698841070  8.0000000000000000
  5.5550308730015177  3.2071985698841070  8.0000000000000000
  8.3325463095022769  3.2071985698841070  8.0000000000000000
  4.1662731547511385  5.6125974972971884  8.0000000000000000
  6.9437885912518968  5.6125974972971884  8.0000000000000000
  9.7213040277526570  5.6125974972971884  8.0000000000000000
 -0.0000000000000001  1.6035992849420535 10.2678318573768497
  2.7775154365007588  1.6035992849420535 10.2678318573768497
  5.5550308730015177  1.6035992849420535 10.2678318573768497
  1.3887577182503792  4.0089982123551335 10.2678318573768497
  4.1662731547511385  4.0089982123551335 10.2678318573768497
  6.9437885912518977  4.0089982123551335 10.2678318573768497
  2.7775154365007588  6.4143971397682140 10.2678318573768497
  5.5550308730015177  6.4143971397682140 10.2678318573768497
  8.3325463095022769  6.4143971397682140 10.2678318573768497
  0.0000000000000000  0.0000000000000000 12.5356637147536993
  2.7775154365007588  0.0000000000000000 12.5356637147536993
  5.5550308730015177  0.0000000000000000 12.5356637147536993
  1.3887577182503794  2.4053989274130805 12.5356637147536993
  4.1662731547511385  2.4053989274130805 12.5356637147536993
  6.9437885912518968  2.4053989274130805 12.5356637147536993
  2.7775154365007588  4.8107978548261610 12.5356637147536993
  5.5550308730015177  4.8107978548261610 12.5356637147536993
  8.3325463095022769  4.8107978548261610 12.5356637147536993
  1.3887577182503794  0.8017996424710268 14.8034955721305508
  4.1662731547511385  0.8017996424710268 14.8034955721305508
  6.9437885912518977  0.8017996424710268 14.8034955721305508
  2.7775154365007588  3.2071985698841070 14.8034955721305508
  5.5550308730015177  3.2071985698841070 14.8034955721305508
  8.3325463095022769  3.2071985698841070 14.8034955721305508
  4.1662731547511385  5.6125974972971884 14.8034955721305508
  6.9437885912518968  5.6125974972971884 14.8034955721305508
  9.7213040277526570  5.6125974972971884 14.8034955721305508
 -0.0000000000000001  1.6035992849420535 17.0713274295073987
  2.7775154365007588  1.6035992849420535 17.0713274295073987
  5.5550308730015177  1.6035992849420535 17.0713274295073987
  1.3887577182503792  4.0089982123551335 17.0713274295073987
  4.1662731547511385  4.0089982123551335 17.0713274295073987
  6.9437885912518977  4.0089982123551335 17.0713274295073987
  2.7775154365007588  6.4143971397682140 17.0713274295073987
  5.5550308730015177  6.4143971397682140 17.0713274295073987
  8.3325463095022769  6.4143971397682140 17.0713274295073987
  0.0000000000000000  0.0000000000000000 19.3391592868842501
  2.7775154365007588  0.0000000000000000 19.3391592868842501
  1.3887577182503794  2.4053989274130805 19.3391592868842501
  6.9437885912518968  2.4053989274130805 19.3391592868842501
  2.7775154365007588  4.8107978548261610 19.3391592868842501
  5.5550308730015177  4.8107978548261610 19.3391592868842501
  8.3325463095022769  4.8107978548261610 19.3391592868842501
  1.3887577182503794  0.0000000000000000 21.3391592868842501
