Pt  S 
 1.0000000000000000
     8.3325463095022769    0.0000000000000000    0.0000000000000000
     0.0000000000000000    8.3325463095022769    0.0000000000000000
     0.0000000000000000    0.0000000000000000   27.8200000000000003
  50   1
Cartesian
  1.3887577182503794  1.3887577182503794  8.0000000000000000
  4.1662731547511385  1.3887577182503794  8.0000000000000000
  6.9437885912518968  1.3887577182503794  8.0000000000000000
  1.3887577182503794  4.1662731547511385  8.0000000000000000
  4.1662731547511385  4.1662731547511385  8.0000000000000000
  6.9437885912518968  4.1662731547511385  8.0000000000000000
  1.3887577182503794  6.9437885912518968  8.0000000000000000
  4.1662731547511385  6.9437885912518968  8.0000000000000000
  6.9437885912518968  6.9437885912518968  8.0000000000000000
  0.0000000000000000  0.0000000000000000  9.9640000000000004
  2.7775154365007588  0.0000000000000000  9.9640000000000004
  5.5550308730015177  0.0000000000000000  9.9640000000000004
  0.0000000000000000  2.7775154365007588  9.9640000000000004
  2.7775154365007588  2.7775154365007588  9.9640000000000004
  5.5550308730015177  2.7775154365007588  9.9640000000000004
  0.0000000000000000  5.5550308730015177  9.9640000000000004
  2.7775154365007588  5.5550308730015177  9.9640000000000004
  5.5550308730015177  5.5550308730015177  9.9640000000000004
  1.3887577182503794  1.3887577182503794 11.9279999999999990
  4.1662731547511385  1.3887577182503794 11.9279999999999990
  6.9437885912518968  1.3887577182503794 11.9279999999999990
  1.3887577182503794  4.1662731547511385 11.9279999999999990
  4.1662731547511385  4.1662731547511385 11.9279999999999990
  6.9437885912518968  4.1662731547511385 11.9279999999999990
  1.3887577182503794  6.9437885912518968 11.9279999999999990
  4.1662731547511385  6.9437885912518968 11.9279999999999990
  6.9437885912518968  6.9437885912518968 11.9279999999999990
  0.0000000000000000  0.0000000000000000 13.8919999999999995
  2.7775154365007588  0.0000000000000000 13.8919999999999995
  5.5550308730015177  0.0000000000000000 13.8919999999999995
  0.0000000000000000  2.7775154365007588 13.8919999999999995
  2.7775154365007588  2.7775154365007588 13.8919999999999995
  5.5550308730015177  2.7775154365007588 13.8919999999999995
  0.0000000000000000  5.5550308730015177 13.8919999999999995
  2.7775154365007588  5.5550308730015177 13.8919999999999995
  5.5550308730015177  5.5550308730015177 13.8919999999999995
  1.3887577182503794  1.3887577182503794 15.8559999999999981
  4.1662731547511385  1.3887577182503794 15.8559999999999981
  6.9437885912518968  1.3887577182503794 15.8559999999999981
  1.3887577182503794  4.1662731547511385 15.8559999999999981
  4.1662731547511385  4.1662731547511385 15.8559999999999981
  6.9437885912518968  4.1662731547511385 15.8559999999999981
  1.3887577182503794  6.9437885912518968 15.8559999999999981
  4.1662731547511385  6.9437885912518968 15.8559999999999981
  6.9437885912518968  6.9437885912518968 15.8559999999999981
  0.0000000000000000  0.0000000000000000 17.8200000000000003
  2.7775154365007588  0.0000000000000000 17.8200000000000003
  0.0000000000000000  2.7775154365007588 17.8200000000000003
  2.7775154365007588  2.7775154365007588 17.8200000000000003
  5.5550308730015177  5.5550308730015177 17.8200000000000003
  1.3887577182503794  0.0000000000000000 19.8200000000000003
